log/Reading instance from file data/g08.dat
Number of nodes: 401
Number of edges: 4400
initialize CPLEX ... done.
Calling CPLEX solve ...
Version identifier: 12.10.0.0 | 2019-11-26 | 843d4de
CPXPARAM_Threads                                 1
CPXPARAM_TimeLimit                               3600
CPXPARAM_WorkMem                                 8192
Tried aggregator 2 times.
MIP Presolve eliminated 601 rows and 800 columns.
MIP Presolve modified 9400 coefficients.
Aggregator did 200 substitutions.
Reduced MIP has 9203 rows, 17000 columns, and 58600 nonzeros.
Reduced MIP has 8600 binaries, 8400 generals, 0 SOSs, and 0 indicators.
Presolve time = 0.07 sec. (64.39 ticks)
Probing fixed 0 vars, tightened 443 bounds.
Probing time = 0.15 sec. (92.32 ticks)
Tried aggregator 1 time.
Detecting symmetries...
Reduced MIP has 9203 rows, 17000 columns, and 58600 nonzeros.
Reduced MIP has 8600 binaries, 8400 generals, 0 SOSs, and 0 indicators.
Presolve time = 0.04 sec. (34.62 ticks)
Probing time = 0.01 sec. (5.97 ticks)
Cover probing fixed 0 vars, tightened 188 bounds.
Clique table members: 8401.
MIP emphasis: balance optimality and feasibility.
MIP search method: dynamic search.
Parallel mode: none, using 1 thread.
Root relaxation solution time = 1.41 sec. (2273.65 ticks)

        Nodes                                         Cuts/
   Node  Left     Objective  IInf  Best Integer    Best Bound    ItCnt     Gap

      0     0     2833.7860   267                   2833.7860    12061         
      0     0     2853.2722   267                   Cuts: 320    13886         
      0     0     3383.3325   267                   Cuts: 129    16174         
      0     0     3611.2753   267                   Cuts: 148    17173         
      0     0     3687.5571   267                    Cuts: 42    18378         
      0     0     3696.5327   267                    Cuts: 41    18857         
Detecting symmetries...
      0     0     3718.4507   267                    Cuts: 26    19067         
      0     0     3735.7117   267                    Cuts: 22    19319         
      0     0     3740.2504   267                     Cuts: 5    19490         
      0     0     3756.1217   267                    Cuts: 19    19963         
      0     0     3759.7769   267                     Cuts: 4    20026         
      0     0     3761.9293   267                     Cuts: 5    20729         
      0     0     3761.9342   267                Flowcuts: 16    20740         
      0     0     3761.9344   267                 Flowcuts: 1    20741         
*     0+    0                        30766.0000     3761.9344            87.77%
*     0+    0                        12845.0000     3761.9344            70.71%
*     0+    0                        12791.0000     3761.9344            70.59%
*     0+    0                        12776.0000     3761.9344            70.55%
*     0+    0                        12693.0000     3761.9344            70.36%
*     0+    0                        12686.0000     3761.9344            70.35%
*     0+    0                        12647.0000     3761.9344            70.25%
*     0+    0                        12463.0000     3761.9344            69.82%
*     0+    0                        11955.0000     3761.9344            68.53%
*     0+    0                        11592.0000     3761.9344            67.55%
      0     0  -1.00000e+75     0    11592.0000     3761.9344    20741   67.55%
Detecting symmetries...
      0     2     3761.9344   627    11592.0000     3761.9345    20741   67.55%
Elapsed time = 7.88 sec. (10224.29 ticks, tree = 0.01 MB, solutions = 10)
      1     3     3841.3132   619    11592.0000     3761.9345    27290   67.55%
      5     7     3767.0617   608    11592.0000     3767.0617    30401   67.50%
      6     8     3833.1232   612    11592.0000     3767.0617    38362   67.50%
      8    10     3875.2429   598    11592.0000     3767.0879    45867   67.50%
     12    14     3879.7675   593    11592.0000     3767.1035    52053   67.50%
     14    16     3831.2918   622    11592.0000     3767.1035    59088   67.50%
     18    20     3835.9748   616    11592.0000     3767.1035    66115   67.50%
     20    22     3836.7489   605    11592.0000     3767.1035    79754   67.50%
     22    24     3895.5349   586    11592.0000     3767.1035   106313   67.50%
     27    29     3852.1114   585    11592.0000     3767.1035   146356   67.50%
Elapsed time = 22.54 sec. (31065.65 ticks, tree = 0.40 MB, solutions = 10)
     29    31     3852.1774   587    11592.0000     3767.1035   164705   67.50%
     30    32     3770.6025   596    11592.0000     3767.1035   165087   67.50%
     31    33     3852.9616   607    11592.0000     3767.1035   172582   67.50%
     37    39     3912.3052   557    11592.0000     3767.1035   180167   67.50%
     40    42     3869.5547   535    11592.0000     3767.1035   189003   67.50%
     42    44     3870.5049   529    11592.0000     3767.1035   195555   67.50%
     46    48     3923.1185   509    11592.0000     3767.1035   203602   67.50%
     48    50     3947.4985   563    11592.0000     3767.1035   210099   67.50%
     50    52     3885.5627   567    11592.0000     3767.1035   218145   67.50%
     53    55     3866.4500   563    11592.0000     3767.1035   227185   67.50%
Elapsed time = 36.06 sec. (51100.18 ticks, tree = 0.93 MB, solutions = 10)
     55    57     3874.9643   561    11592.0000     3767.1035   233654   67.50%
     59    61     3864.2573   512    11592.0000     3767.1035   240846   67.50%
     61    63     3899.1423   590    11592.0000     3767.1035   247556   67.50%
     64    66     3864.8152   589    11592.0000     3767.1035   257355   67.50%
     66    68     3865.9867   574    11592.0000     3767.1035   264466   67.50%
     68    70     3876.4402   548    11592.0000     3767.1035   271600   67.50%
     70    72     3854.5340   531    11592.0000     3767.1035   299048   67.50%
     73    75     3846.0343   580    11592.0000     3767.1035   306232   67.50%
     78    80     3854.2094   564    11592.0000     3767.1035   315277   67.50%
     80    82     3790.5701   584    11592.0000     3767.1035   315430   67.50%
Elapsed time = 50.83 sec. (72725.42 ticks, tree = 1.69 MB, solutions = 10)
     82    84     3860.4077   565    11592.0000     3767.1035   322931   67.50%
     86    88     3863.8596   575    11592.0000     3767.1035   332845   67.50%
     90    92     3875.4053   554    11592.0000     3767.1035   339109   67.50%
     93    95     3874.0246   571    11592.0000     3767.1035   381899   67.50%
     95    97     3874.0246   575    11592.0000     3767.1035   388074   67.50%
     98   100     3885.3766   581    11592.0000     3767.1035   395959   67.50%
    100   102     3879.3722   559    11592.0000     3767.1035   404481   67.50%
    103   105     3878.5097   551    11592.0000     3767.1035   420407   67.50%
    104   106     3891.9996   541    11592.0000     3767.1035   440437   67.50%
    106   108     3907.5230   538    11592.0000     3767.1035   445473   67.50%
Elapsed time = 66.55 sec. (94465.73 ticks, tree = 2.75 MB, solutions = 10)
    111   113     3932.2590   550    11592.0000     3767.1035   450313   67.50%
    120   122     3950.9018   484    11592.0000     3767.1035   454660   67.50%
    130   132     3992.6859   463    11592.0000     3767.1035   459175   67.50%
    135   137     4054.2075   471    11592.0000     3767.1035   463649   67.50%
    140   142     4016.0853   453    11592.0000     3767.1035   468964   67.50%
    142   144     4069.5372   463    11592.0000     3767.1035   472875   67.50%
    152   154     4043.1948   464    11592.0000     3767.1035   478396   67.50%
    156   158     4082.2161   442    11592.0000     3767.1035   482513   67.50%
    160   162     4091.2756   436    11592.0000     3767.1035   486338   67.50%
    167   169     4114.5768   472    11592.0000     3767.1035   491742   67.50%
Elapsed time = 74.66 sec. (105966.51 ticks, tree = 3.24 MB, solutions = 10)
    173   175     4164.8100   450    11592.0000     3767.1035   496618   67.50%
    177   179     4175.0268   435    11592.0000     3767.1035   501110   67.50%
    182   184     4228.7815   443    11592.0000     3767.1035   504522   67.50%
    185   187     4301.6142   436    11592.0000     3767.1035   508649   67.50%
    188   190     4274.6268   440    11592.0000     3767.1035   512092   67.50%
    196   198     4353.8751   398    11592.0000     3767.1035   516330   67.50%
    200   202     4403.0446   411    11592.0000     3767.1035   519732   67.50%
    210   212     4467.9519   393    11592.0000     3767.1035   524540   67.50%
    231   233     4404.3330   402    11592.0000     3767.1035   527704   67.50%
    245   247     4407.5412   402    11592.0000     3767.1035   530639   67.50%
Elapsed time = 82.35 sec. (116986.54 ticks, tree = 4.09 MB, solutions = 10)
    255   257     4414.9702   402    11592.0000     3767.1035   533602   67.50%
    266   268     4426.4952   382    11592.0000     3767.1035   537266   67.50%
    270   272     5197.1942   368    11592.0000     3767.1035   543458   67.50%
    276   278     5220.9797   324    11592.0000     3767.1035   547169   67.50%
    283   285     5234.9723   328    11592.0000     3767.1035   551233   67.50%
    289   291     5290.8859   310    11592.0000     3767.1035   554476   67.50%
    299   301     5295.3775   291    11592.0000     3767.1035   558749   67.50%
    306   308     5367.8881   288    11592.0000     3767.1035   562558   67.50%
    319   321     5339.2227   293    11592.0000     3767.1035   565947   67.50%
    327   329     5344.5796   300    11592.0000     3767.1035   569350   67.50%
Elapsed time = 89.95 sec. (127706.48 ticks, tree = 5.41 MB, solutions = 10)
    336   338     5464.6001   283    11592.0000     3767.1035   572857   67.50%
    344   346     5471.6144   282    11592.0000     3767.1035   575817   67.50%
    354   356     5545.3472   272    11592.0000     3767.1035   581049   67.50%
    361   363     5555.1197   298    11592.0000     3767.1035   584905   67.50%
    370   372     5681.5922   247    11592.0000     3767.1035   589211   67.50%
    378   380     5686.3927   257    11592.0000     3767.1035   593301   67.50%
    386   388     5809.4107   272    11592.0000     3767.1035   598192   67.50%
    395   397     6589.7089   255    11592.0000     3767.1035   605208   67.50%
    403   405     6915.1296   221    11592.0000     3767.1035   607650   67.50%
    414   416     6958.6582   208    11592.0000     3767.1035   613418   67.50%
Elapsed time = 98.06 sec. (138859.31 ticks, tree = 7.27 MB, solutions = 10)
    422   424     7092.2255   195    11592.0000     3767.1035   619174   67.50%
    429   431     7234.3552   191    11592.0000     3767.1035   624722   67.50%
    440   442     7209.0295   187    11592.0000     3767.1035   629487   67.50%
    452   454     7257.8018   189    11592.0000     3767.1035   634270   67.50%

Performing restart 1

Repeating presolve.
Tried aggregator 1 time.
MIP Presolve eliminated 1 rows and 400 columns.
MIP Presolve modified 9000 coefficients.
Reduced MIP has 9202 rows, 16600 columns, and 50200 nonzeros.
Reduced MIP has 8600 binaries, 8000 generals, 0 SOSs, and 0 indicators.
Presolve time = 0.12 sec. (77.65 ticks)
Tried aggregator 1 time.
Reduced MIP has 9202 rows, 16600 columns, and 50200 nonzeros.
Reduced MIP has 8600 binaries, 8000 generals, 0 SOSs, and 0 indicators.
Presolve time = 0.04 sec. (32.04 ticks)
Represolve time = 0.33 sec. (215.61 ticks)
    457     0     4699.5564   618    11592.0000     Cuts: 282   656916   59.46%
    457     0     5271.7837   618    11592.0000     Cuts: 474   664038   54.52%
    457     0     5583.5429   618    11592.0000     Cuts: 390   669199   51.83%
*   457+    0                         7639.0000     5583.5429            26.91%
*   457+    0                         7551.0000     5583.5429            26.06%
*   457+    0                         7538.0000     5583.5429            25.93%
*   457+    0                         7460.0000     5583.5429            25.15%
*   457+    0                         7455.0000     5583.5429            25.10%
*   457+    0                         7334.0000     5583.5429            23.87%
*   457+    0                         7315.0000     5583.5429            23.67%
*   457+    0                         7302.0000     5583.5429            23.53%
*   457+    0                         7294.0000     5583.5429            23.45%
    457     0     5680.0627   618     7294.0000     Cuts: 306   672444   22.13%
    457     0     5718.7002   618     7294.0000     Cuts: 262   675070   21.60%
    457     0     5758.4315   618     7294.0000     Cuts: 135   677246   21.05%
    457     0     5762.9347   618     7294.0000     Cuts: 155   678034   20.99%
    457     0     5772.1748   618     7294.0000     Cuts: 130   680431   20.86%
    457     0     5775.5383   618     7294.0000     Cuts: 175   682249   20.82%
    457     0     5780.5459   618     7294.0000     Cuts: 163   683872   20.75%
    457     0     5782.9404   618     7294.0000     Cuts: 141   685374   20.72%
    457     0     5783.9189   618     7294.0000      Cuts: 91   686652   20.70%
    457     0     5784.2910   618     7294.0000      Cuts: 82   687111   20.70%
    457     0     5784.6231   618     7294.0000      Cuts: 67   687397   20.69%
    457     0     5785.1394   618     7294.0000      Cuts: 44   689907   20.69%
    457     0     5785.1734   618     7294.0000      Cuts: 45   689995   20.69%
    457     0     5785.2927   618     7294.0000       Cuts: 4   690361   20.68%
    457     0     5785.3921   618     7294.0000      Cuts: 38   690566   20.68%
    457     0     5785.4108   618     7294.0000      Cuts: 19   692102   20.68%
    457     0     5785.4108   618     7294.0000      Cuts: 19   692149   20.68%
    457     0     5785.5172   618     7294.0000      Cuts: 12   694557   20.68%
    457     0     5785.6178   618     7294.0000       Cuts: 6   694966   20.68%
*   457+    0                         5787.0000     5785.6178             0.02%

Repeating presolve.
Tried aggregator 3 times.
MIP Presolve eliminated 8526 rows and 15836 columns.
MIP Presolve modified 278 coefficients.
Aggregator did 236 substitutions.
Reduced MIP has 440 rows, 528 columns, and 1434 nonzeros.
Reduced MIP has 289 binaries, 239 generals, 0 SOSs, and 0 indicators.
Presolve time = 0.01 sec. (19.69 ticks)
Tried aggregator 2 times.
MIP Presolve eliminated 113 rows and 131 columns.
MIP Presolve added 2 rows and 0 columns.
MIP Presolve modified 206 coefficients.
Aggregator did 19 substitutions.
Reduced MIP has 310 rows, 378 columns, and 1021 nonzeros.
Reduced MIP has 200 binaries, 178 generals, 0 SOSs, and 0 indicators.
Presolve time = 0.00 sec. (2.19 ticks)
Tried aggregator 2 times.
MIP Presolve eliminated 13 rows and 16 columns.
MIP Presolve modified 122 coefficients.
Aggregator did 9 substitutions.
Reduced MIP has 288 rows, 353 columns, and 952 nonzeros.
Reduced MIP has 188 binaries, 165 generals, 0 SOSs, and 0 indicators.
Presolve time = 0.00 sec. (0.96 ticks)
Tried aggregator 1 time.
MIP Presolve modified 79 coefficients.
Reduced MIP has 288 rows, 353 columns, and 952 nonzeros.
Reduced MIP has 188 binaries, 165 generals, 0 SOSs, and 0 indicators.
Presolve time = 0.00 sec. (0.67 ticks)
Represolve time = 0.23 sec. (671.92 ticks)
*   457     0      integral     0     5787.0000                 695249    0.00%

GUB cover cuts applied:  73
Cover cuts applied:  12
Flow cuts applied:  112
Mixed integer rounding cuts applied:  52
Zero-half cuts applied:  8
Lift and project cuts applied:  1
Gomory fractional cuts applied:  2

Root node processing (before b&c):
  Real time             =    7.80 sec. (10168.07 ticks)
Sequential b&c:
  Real time             =  117.12 sec. (165181.92 ticks)
                          ------------
Total (root+branch&cut) =  124.92 sec. (175350.00 ticks)
SOLUTION:

x(0,367)[0..1]  = 1
x(1,232)[0..1]  = 1
x(2,140)[0..1]  = 1
x(2,92)[0..1]  = 1
x(5,39)[0..1]  = 1
x(5,109)[0..1]  = 1
x(7,301)[0..1]  = 1
x(8,334)[0..1]  = 1
x(8,348)[0..1]  = 1
x(8,148)[0..1]  = 1
x(12,344)[0..1]  = 1
x(12,396)[0..1]  = 1
x(13,84)[0..1]  = 1
x(14,281)[0..1]  = 1
x(16,295)[0..1]  = 1
x(19,253)[0..1]  = 1
x(20,149)[0..1]  = 1
x(28,56)[0..1]  = 1
x(33,259)[0..1]  = 1
x(35,147)[0..1]  = 1
x(35,183)[0..1]  = 1
x(38,237)[0..1]  = 1
x(39,170)[0..1]  = 1
x(42,256)[0..1]  = 1
x(43,375)[0..1]  = 1
x(47,72)[0..1]  = 1
x(49,268)[0..1]  = 1
x(49,94)[0..1]  = 1
x(51,95)[0..1]  = 1
x(55,267)[0..1]  = 1
x(56,215)[0..1]  = 1
x(60,247)[0..1]  = 1
x(66,299)[0..1]  = 1
x(67,326)[0..1]  = 1
x(67,235)[0..1]  = 1
x(68,306)[0..1]  = 1
x(86,356)[0..1]  = 1
x(87,204)[0..1]  = 1
x(88,392)[0..1]  = 1
x(92,276)[0..1]  = 1
x(92,350)[0..1]  = 1
x(95,314)[0..1]  = 1
x(97,141)[0..1]  = 1
x(102,384)[0..1]  = 1
x(103,387)[0..1]  = 1
x(103,275)[0..1]  = 1
x(109,216)[0..1]  = 1
x(121,175)[0..1]  = 1
x(122,376)[0..1]  = 1
x(122,258)[0..1]  = 1
x(132,171)[0..1]  = 1
x(134,364)[0..1]  = 1
x(135,178)[0..1]  = 1
x(135,302)[0..1]  = 1
x(140,161)[0..1]  = 1
x(141,218)[0..1]  = 1
x(141,297)[0..1]  = 1
x(141,284)[0..1]  = 1
x(145,177)[0..1]  = 1
x(147,233)[0..1]  = 1
x(148,174)[0..1]  = 1
x(148,298)[0..1]  = 1
x(149,191)[0..1]  = 1
x(149,304)[0..1]  = 1
x(161,239)[0..1]  = 1
x(161,383)[0..1]  = 1
x(166,251)[0..1]  = 1
x(166,310)[0..1]  = 1
x(170,173)[0..1]  = 1
x(171,391)[0..1]  = 1
x(178,273)[0..1]  = 1
x(197,318)[0..1]  = 1
x(199,248)[0..1]  = 1
x(207,296)[0..1]  = 1
x(230,373)[0..1]  = 1
x(230,332)[0..1]  = 1
x(239,390)[0..1]  = 1
x(259,347)[0..1]  = 1
x(276,286)[0..1]  = 1
x(277,283)[0..1]  = 1
x(286,385)[0..1]  = 1
x(289,291)[0..1]  = 1
x(301,386)[0..1]  = 1
x(302,339)[0..1]  = 1
x(302,355)[0..1]  = 1
x(302,359)[0..1]  = 1
x(303,352)[0..1]  = 1
x(312,372)[0..1]  = 1
x(329,345)[0..1]  = 1
x(348,370)[0..1]  = 1
x(356,380)[0..1]  = 1
x(364,398)[0..1]  = 1
x(370,1)[0..1]  = 1
x(359,2)[0..1]  = 1
x(376,3)[0..1]  = 1
x(295,5)[0..1]  = 1
x(37,7)[0..1]  = 1
x(248,8)[0..1]  = 1
x(95,12)[0..1]  = 1
x(316,13)[0..1]  = 1
x(391,16)[0..1]  = 1
x(205,17)[0..1]  = 1
x(230,19)[0..1]  = 1
x(268,20)[0..1]  = 1
x(253,26)[0..1]  = 1
x(35,28)[0..1]  = 1
x(299,31)[0..1]  = 1
x(312,33)[0..1]  = 1
x(174,35)[0..1]  = 1
x(38,37)[0..1]  = 1
x(254,38)[0..1]  = 1
x(56,42)[0..1]  = 1
x(101,43)[0..1]  = 1
x(310,47)[0..1]  = 1
x(88,51)[0..1]  = 1
x(61,54)[0..1]  = 1
x(301,55)[0..1]  = 1
x(289,60)[0..1]  = 1
x(188,61)[0..1]  = 1
x(398,64)[0..1]  = 1
x(173,65)[0..1]  = 1
x(186,66)[0..1]  = 1
x(176,67)[0..1]  = 1
x(118,68)[0..1]  = 1
x(196,69)[0..1]  = 1
x(286,77)[0..1]  = 1
x(140,78)[0..1]  = 1
x(81,79)[0..1]  = 1
x(364,81)[0..1]  = 1
x(306,85)[0..1]  = 1
x(117,86)[0..1]  = 1
x(334,87)[0..1]  = 1
x(122,88)[0..1]  = 1
x(213,96)[0..1]  = 1
x(239,97)[0..1]  = 1
x(230,101)[0..1]  = 1
x(364,102)[0..1]  = 1
x(376,103)[0..1]  = 1
x(142,107)[0..1]  = 1
x(135,111)[0..1]  = 1
x(177,115)[0..1]  = 1
x(137,118)[0..1]  = 1
x(355,120)[0..1]  = 1
x(390,121)[0..1]  = 1
x(261,122)[0..1]  = 1
x(145,127)[0..1]  = 1
x(180,132)[0..1]  = 1
x(193,134)[0..1]  = 1
x(391,135)[0..1]  = 1
x(367,142)[0..1]  = 1
x(289,145)[0..1]  = 1
x(176,146)[0..1]  = 1
x(248,152)[0..1]  = 1
x(355,160)[0..1]  = 1
x(180,166)[0..1]  = 1
x(195,176)[0..1]  = 1
x(254,179)[0..1]  = 1
x(334,180)[0..1]  = 1
x(396,181)[0..1]  = 1
x(297,186)[0..1]  = 1
x(256,188)[0..1]  = 1
x(267,193)[0..1]  = 1
x(247,195)[0..1]  = 1
x(203,196)[0..1]  = 1
x(367,199)[0..1]  = 1
x(253,203)[0..1]  = 1
x(372,205)[0..1]  = 1
x(352,207)[0..1]  = 1
x(314,209)[0..1]  = 1
x(237,212)[0..1]  = 1
x(387,213)[0..1]  = 1
x(367,228)[0..1]  = 1
x(258,230)[0..1]  = 1
x(334,254)[0..1]  = 1
x(283,255)[0..1]  = 1
x(391,261)[0..1]  = 1
x(334,263)[0..1]  = 1
x(345,269)[0..1]  = 1
x(299,277)[0..1]  = 1
x(281,279)[0..1]  = 1
x(326,285)[0..1]  = 1
x(334,289)[0..1]  = 1
x(387,303)[0..1]  = 1
x(370,312)[0..1]  = 1
x(398,315)[0..1]  = 1
x(383,316)[0..1]  = 1
x(376,329)[0..1]  = 1
x(391,389)[0..1]  = 1
z(1)[0..1]  = 1
z(2)[0..1]  = 1
z(3)[0..1]  = 1
z(5)[0..1]  = 1
z(7)[0..1]  = 1
z(8)[0..1]  = 1
z(12)[0..1]  = 1
z(13)[0..1]  = 1
z(16)[0..1]  = 1
z(17)[0..1]  = 1
z(19)[0..1]  = 1
z(20)[0..1]  = 1
z(26)[0..1]  = 1
z(28)[0..1]  = 1
z(31)[0..1]  = 1
z(33)[0..1]  = 1
z(35)[0..1]  = 1
z(37)[0..1]  = 1
z(38)[0..1]  = 1
z(39)[0..1]  = 1
z(42)[0..1]  = 1
z(43)[0..1]  = 1
z(47)[0..1]  = 1
z(49)[0..1]  = 1
z(51)[0..1]  = 1
z(54)[0..1]  = 1
z(55)[0..1]  = 1
z(56)[0..1]  = 1
z(60)[0..1]  = 1
z(61)[0..1]  = 1
z(64)[0..1]  = 1
z(65)[0..1]  = 1
z(66)[0..1]  = 1
z(67)[0..1]  = 1
z(68)[0..1]  = 1
z(69)[0..1]  = 1
z(72)[0..1]  = 1
z(77)[0..1]  = 1
z(78)[0..1]  = 1
z(79)[0..1]  = 1
z(81)[0..1]  = 1
z(84)[0..1]  = 1
z(85)[0..1]  = 1
z(86)[0..1]  = 1
z(87)[0..1]  = 1
z(88)[0..1]  = 1
z(92)[0..1]  = 1
z(94)[0..1]  = 1
z(95)[0..1]  = 1
z(96)[0..1]  = 1
z(97)[0..1]  = 1
z(101)[0..1]  = 1
z(102)[0..1]  = 1
z(103)[0..1]  = 1
z(107)[0..1]  = 1
z(109)[0..1]  = 1
z(111)[0..1]  = 1
z(115)[0..1]  = 1
z(120)[0..1]  = 1
z(121)[0..1]  = 1
z(122)[0..1]  = 1
z(127)[0..1]  = 1
z(132)[0..1]  = 1
z(135)[0..1]  = 1
z(140)[0..1]  = 1
z(141)[0..1]  = 1
z(142)[0..1]  = 1
z(145)[0..1]  = 1
z(146)[0..1]  = 1
z(147)[0..1]  = 1
z(148)[0..1]  = 1
z(149)[0..1]  = 1
z(152)[0..1]  = 1
z(160)[0..1]  = 1
z(161)[0..1]  = 1
z(166)[0..1]  = 1
z(171)[0..1]  = 1
z(173)[0..1]  = 1
z(174)[0..1]  = 1
z(175)[0..1]  = 1
z(176)[0..1]  = 1
z(177)[0..1]  = 1
z(178)[0..1]  = 1
z(179)[0..1]  = 1
z(180)[0..1]  = 1
z(181)[0..1]  = 1
z(183)[0..1]  = 1
z(186)[0..1]  = 1
z(188)[0..1]  = 1
z(191)[0..1]  = 1
z(193)[0..1]  = 1
z(195)[0..1]  = 1
z(196)[0..1]  = 1
z(197)[0..1]  = 1
z(199)[0..1]  = 1
z(203)[0..1]  = 1
z(204)[0..1]  = 1
z(205)[0..1]  = 1
z(207)[0..1]  = 1
z(209)[0..1]  = 1
z(212)[0..1]  = 1
z(213)[0..1]  = 1
z(215)[0..1]  = 1
z(216)[0..1]  = 1
z(218)[0..1]  = 1
z(228)[0..1]  = 1
z(230)[0..1]  = 1
z(232)[0..1]  = 1
z(233)[0..1]  = 1
z(235)[0..1]  = 1
z(237)[0..1]  = 1
z(239)[0..1]  = 1
z(240)[0..1]  = 1
z(247)[0..1]  = 1
z(248)[0..1]  = 1
z(251)[0..1]  = 1
z(253)[0..1]  = 1
z(254)[0..1]  = 1
z(255)[0..1]  = 1
z(256)[0..1]  = 1
z(258)[0..1]  = 1
z(259)[0..1]  = 1
z(261)[0..1]  = 1
z(263)[0..1]  = 1
z(267)[0..1]  = 1
z(268)[0..1]  = 1
z(269)[0..1]  = 1
z(273)[0..1]  = 1
z(275)[0..1]  = 1
z(276)[0..1]  = 1
z(277)[0..1]  = 1
z(279)[0..1]  = 1
z(281)[0..1]  = 1
z(283)[0..1]  = 1
z(284)[0..1]  = 1
z(285)[0..1]  = 1
z(286)[0..1]  = 1
z(288)[0..1]  = 1
z(289)[0..1]  = 1
z(291)[0..1]  = 1
z(295)[0..1]  = 1
z(296)[0..1]  = 1
z(297)[0..1]  = 1
z(298)[0..1]  = 1
z(299)[0..1]  = 1
z(300)[0..1]  = 1
z(301)[0..1]  = 1
z(302)[0..1]  = 1
z(303)[0..1]  = 1
z(304)[0..1]  = 1
z(306)[0..1]  = 1
z(310)[0..1]  = 1
z(312)[0..1]  = 1
z(314)[0..1]  = 1
z(315)[0..1]  = 1
z(316)[0..1]  = 1
z(318)[0..1]  = 1
z(326)[0..1]  = 1
z(329)[0..1]  = 1
z(332)[0..1]  = 1
z(334)[0..1]  = 1
z(339)[0..1]  = 1
z(344)[0..1]  = 1
z(345)[0..1]  = 1
z(347)[0..1]  = 1
z(348)[0..1]  = 1
z(350)[0..1]  = 1
z(352)[0..1]  = 1
z(355)[0..1]  = 1
z(356)[0..1]  = 1
z(359)[0..1]  = 1
z(364)[0..1]  = 1
z(367)[0..1]  = 1
z(370)[0..1]  = 1
z(372)[0..1]  = 1
z(373)[0..1]  = 1
z(375)[0..1]  = 1
z(376)[0..1]  = 1
z(380)[0..1]  = 1
z(383)[0..1]  = 1
z(384)[0..1]  = 1
z(385)[0..1]  = 1
z(386)[0..1]  = 1
z(387)[0..1]  = 1
z(389)[0..1]  = 1
z(390)[0..1]  = 1
z(391)[0..1]  = 1
z(392)[0..1]  = 1
z(396)[0..1]  = 1
z(398)[0..1]  = 1


CPLEX finished.

CPLEX status: Optimal
Branch-and-Bound nodes: 457
Objective value: 5787
CPU time: 124.85

